NAME: dataset3
TYPE: TSP
COMMENT: 3 random locations
DIMENSION: 3
EDGE_WEIGHT_TYPE: EUC_2D
NODE_COORD_SECTION
1 112.4866595518 133.5971855761
2 91.1589008363 218.9407023604
3 161.5170494085 197.800855223
EOF
